
  22   10
  10   10   10   10   10   10   10   10   10   10

   0   0   0   0   0   0   0   0   0   0   0   2 2 4 
   1   0   0   0   0   0   0   0   0   0  10   2 6 3 
   2  10   0   0   0   0   0   0   0   0   0   2 7 5 
   9   0   0   0  10   0   0   0   0   0   0   2 7 5 
   5   0   0   0   0  10   0   0   0   0   0   3 11 9 8 
  10   0   0   0  10   0   0   0   0   0   0   3 11 9 8 
   7   0   0   0   0  10   0   0   0   0   0   2 11 10 
   5   0   0   0   0   0   0  10   0   0   0   9 21 20 19 18 17 16 14 13 12 
   6   0   0   0   0   0   0   0  10   0   0   1 10 
   6   0   0   0   0   0  10   0   0   0   0   8 19 18 17 16 15 14 13 12 
   2   0   0   0  10   0   0   0   0   0   0   6 21 20 15 14 13 12 
   5   0   0   0   0   0   0   0   0   0  10   1 22
  10   0   0  10   0   0   0   0   0   0   0   1 22
   5   0   0   0  10   0   0   0   0   0   0   1 22
   2   0  10   0   0   0   0   0   0   0   0   1 22
   1   0  10   0   0   0   0   0   0   0   0   1 22
  10   0   0   0   0   0   0  10   0   0   0   1 22
   6   0   0   0   0   0   0   0   0   0  10   1 22
   8   0   0   0   0   0   0  10   0   0   0   1 22
  10   0   0  10   0   0   0   0   0   0   0   1 22
   4  10   0   0   0   0   0   0   0   0   0   1 22
   0   0   0   0   0   0   0   0   0   0   0   0 
